
Gurobi 8.1.1 (linux64) logging started Thu Jul 25 17:13:36 2019

Changed value of parameter LogFile to opt_runs/f10_l50_d20_p100/gurobi/gurobi.log
   Prev: gurobi.log  Default: 
Parameter OutputFlag unchanged
   Value: 1  Min: 0  Max: 1  Default: 1
Optimize a model with 2060 rows, 100050 columns and 200100 nonzeros
Variable types: 100000 continuous, 50 integer (50 binary)
Coefficient statistics:
  Matrix range     [4e-01, 8e+03]
  Objective range  [1e+00, 2e+05]
  Bounds range     [1e+00, 1e+00]
  RHS range        [1e+00, 1e+03]
Presolve removed 1204 rows and 60006 columns
Presolve time: 0.55s
Presolved: 856 rows, 40044 columns, 80086 nonzeros
Variable types: 40002 continuous, 42 integer (42 binary)

Root relaxation: objective 7.897144e+09, 1663 iterations, 0.13 seconds

    Nodes    |    Current Node    |     Objective Bounds      |     Work
 Expl Unexpl |  Obj  Depth IntInf | Incumbent    BestBd   Gap | It/Node Time

     0     0 7.8971e+09    0   38          - 7.8971e+09      -     -    0s
H    0     0                    9.859986e+09 7.8971e+09  19.9%     -    0s
H    0     0                    9.799816e+09 7.8971e+09  19.4%     -    0s
H    0     0                    9.581763e+09 7.8971e+09  17.6%     -    1s
     0     0 7.9996e+09    0   39 9.5818e+09 7.9996e+09  16.5%     -    1s
     0     0 8.0516e+09    0   40 9.5818e+09 8.0516e+09  16.0%     -    1s
     0     0 8.0951e+09    0   40 9.5818e+09 8.0951e+09  15.5%     -    1s
     0     0 8.1258e+09    0   40 9.5818e+09 8.1258e+09  15.2%     -    1s
     0     0 8.1537e+09    0   39 9.5818e+09 8.1537e+09  14.9%     -    1s
     0     0 8.1811e+09    0   40 9.5818e+09 8.1811e+09  14.6%     -    1s
     0     0 8.1976e+09    0   39 9.5818e+09 8.1976e+09  14.4%     -    1s
     0     0 8.2131e+09    0   39 9.5818e+09 8.2131e+09  14.3%     -    1s
     0     0 8.2234e+09    0   38 9.5818e+09 8.2234e+09  14.2%     -    1s
     0     0 8.2300e+09    0   37 9.5818e+09 8.2300e+09  14.1%     -    2s
     0     0 8.2373e+09    0   34 9.5818e+09 8.2373e+09  14.0%     -    2s
     0     0 8.2428e+09    0   35 9.5818e+09 8.2428e+09  14.0%     -    2s
     0     0 8.2487e+09    0   36 9.5818e+09 8.2487e+09  13.9%     -    2s
     0     0 8.2526e+09    0   35 9.5818e+09 8.2526e+09  13.9%     -    2s
     0     0 8.2552e+09    0   36 9.5818e+09 8.2552e+09  13.8%     -    2s
     0     0 8.2575e+09    0   34 9.5818e+09 8.2575e+09  13.8%     -    2s
     0     0 8.2592e+09    0   35 9.5818e+09 8.2592e+09  13.8%     -    2s
     0     0 8.2618e+09    0   35 9.5818e+09 8.2618e+09  13.8%     -    2s
     0     0 8.2621e+09    0   34 9.5818e+09 8.2621e+09  13.8%     -    2s
     0     0 8.2623e+09    0   32 9.5818e+09 8.2623e+09  13.8%     -    2s
     0     0 8.2625e+09    0   32 9.5818e+09 8.2625e+09  13.8%     -    2s
     0     0 8.2625e+09    0   32 9.5818e+09 8.2625e+09  13.8%     -    2s
     0     0 8.2849e+09    0   36 9.5818e+09 8.2849e+09  13.5%     -    2s
H    0     0                    8.906700e+09 8.2849e+09  6.98%     -    3s
     0     0 8.2994e+09    0   36 8.9067e+09 8.2994e+09  6.82%     -    3s
     0     0 8.3084e+09    0   36 8.9067e+09 8.3084e+09  6.72%     -    3s
     0     0 8.3183e+09    0   33 8.9067e+09 8.3183e+09  6.61%     -    3s
     0     0 8.3245e+09    0   37 8.9067e+09 8.3245e+09  6.54%     -    3s
     0     0 8.3280e+09    0   35 8.9067e+09 8.3280e+09  6.50%     -    3s
     0     0 8.3309e+09    0   33 8.9067e+09 8.3309e+09  6.47%     -    3s
     0     0 8.3343e+09    0   32 8.9067e+09 8.3343e+09  6.43%     -    3s
     0     0 8.3358e+09    0   31 8.9067e+09 8.3358e+09  6.41%     -    4s
     0     0 8.3372e+09    0   32 8.9067e+09 8.3372e+09  6.39%     -    4s
     0     0 8.3383e+09    0   32 8.9067e+09 8.3383e+09  6.38%     -    4s
     0     0 8.3388e+09    0   32 8.9067e+09 8.3388e+09  6.38%     -    4s
     0     0 8.3390e+09    0   32 8.9067e+09 8.3390e+09  6.37%     -    4s
     0     0 8.3492e+09    0   33 8.9067e+09 8.3492e+09  6.26%     -    4s
H    0     0                    8.357002e+09 8.3492e+09  0.09%     -    4s
     0     0 8.3519e+09    0   34 8.3570e+09 8.3519e+09  0.06%     -    4s
     0     0 8.3533e+09    0   25 8.3570e+09 8.3533e+09  0.04%     -    4s
     0     0 8.3546e+09    0   25 8.3570e+09 8.3546e+09  0.03%     -    4s
     0     0 8.3547e+09    0   28 8.3570e+09 8.3547e+09  0.03%     -    4s
     0     0 8.3566e+09    0   27 8.3570e+09 8.3566e+09  0.00%     -    5s

Cutting planes:
  Implied bound: 679
  MIR: 13
  Flow cover: 119

Explored 1 nodes (6421 simplex iterations) in 5.14 seconds
Thread count was 4 (of 4 available processors)

Solution count 5: 8.357e+09 8.9067e+09 9.58176e+09 ... 9.85999e+09

Optimal solution found (tolerance 1.00e-04)
Best objective 8.357001872782e+09, best bound 8.356591279238e+09, gap 0.0049%

Solution quality statistics for model Unnamed :
  Maximum violation:
    Bound       : 1.54466493e-11 (flow[F03,L15,D17,P039])
    Constraint  : 4.99750125e-12 (R31)
    Integrality : 8.05353751e-16 (is_line[F03,L16])
